$ Problem from http://www.cs.cornell.edu/gomes/QUASIdemo.html
$ (n = 10)
$ Pattern #5
$ Note: There are no solutions to this problem.
language ESSENCE' 1.0
letting n be 10
letting mat be [
      [0,0,0,0,0,0,0,0,0,1],
      [0,0,0,0,0,0,0,0,1,0],
      [0,0,0,0,0,0,0,1,0,0],
      [0,0,0,0,0,0,2,0,0,0],
      [0,0,0,0,0,1,0,0,0,0],
      [0,0,0,0,1,0,0,0,0,0],
      [0,0,0,1,0,0,0,0,0,0],
      [0,0,1,0,0,0,0,0,0,0],
      [0,1,0,0,0,0,0,0,0,0],
      [1,0,0,0,0,0,0,0,0,0]
    ]
